12 25
1 6 341
1 7 88
1 9 285
2 3 550
2 4 292
2 10 405
3 4 261
3 5 291
3 8 378
3 10 390
3 11 448
4 10 254
5 8 268
5 10 253
5 12 199
6 7 389
6 8 21
6 9 121
6 12 225
7 9 354
7 11 581
8 9 142
8 11 613
8 12 219
9 12 261
